\ENCODING=ISO-8859-1
\Problem name: ilog.cplex

Minimize
 obj1: 98974 x1 + 100709 x2 + 101194 x3 + 105673 x4 + 105814 x5 + 101592 x6
       + 102462 x7 + 103642 x8 + 98718 x9 + 103704 x10 + 109501 x11 + 91081 x12
       + 105395 x13 + 109782 x14 + 93747 x15 + 91576 x16 + 100618 x17
       + 107919 x18 + 104935 x19 + 108439 x20 + 104260 x21 + 107899 x22
       + 107953 x23 + 96793 x24 + 94821 x25 + 97838 x26 + 92569 x27 + 96439 x28
       + 92837 x29 + 98168 x30 + 92907 x31 + 91057 x32 + 91237 x33 + 100943 x34
       + 94074 x35 + 100548 x36 + 93005 x37 + 99038 x38 + 94417 x39 + 90250 x40
       + 100428 x41 + 92005 x42 + 93659 x43 + 93252 x44 + 104788 x45
       + 103204 x46 + 109507 x47 + 90203 x48 + 90495 x49 + 96252 x50
       + 108314 x51 + 94737 x52 + 93473 x53 + 97964 x54 + 109003 x55
       + 92096 x56 + 100065 x57 + 99600 x58 + 103688 x59 + 93479 x60
       + 99353 x61 + 92430 x62 + 99162 x63 + 101939 x64 + 91190 x65
       + 100243 x66 + 90697 x67 + 90073 x68 + 93001 x69 + 100932 x70
       + 92240 x71 + 92863 x72 + 101574 x73 + 91687 x74 + 101434 x75
       + 107973 x76 + 97434 x77 + 100668 x78 + 106988 x79 + 104656 x80
       + 97345 x81 + 95177 x82 + 106683 x83 + 104776 x84 + 93549 x85
       + 106588 x86 + 102967 x87 + 95618 x88 + 104963 x89 + 104225 x90
       + 103478 x91 + 94176 x92 + 101198 x93 + 103076 x94 + 94786 x95
       + 93135 x96 + 91537 x97 + 103508 x98 + 104244 x99 + 99831 x100
       + 97901 x101 + 95081 x102 + 97025 x103 + 91264 x104 + 93349 x105
       + 91122 x106 + 93262 x107 + 90557 x108 + 105801 x109 + 95877 x110
       + 93668 x111 + 103257 x112 + 100460 x113 + 101874 x114 + 91099 x115
       + 95510 x116 + 103776 x117 + 91542 x118 + 100213 x119 + 90337 x120
       + 103146 x121 + 106698 x122 + 107214 x123 + 91697 x124 + 93067 x125
       + 100463 x126 + 108312 x127 + 109966 x128 + 92830 x129 + 98766 x130
       + 105225 x131 + 94817 x132 + 96643 x133 + 92893 x134 + 108051 x135
       + 94117 x136 + 92887 x137 + 92875 x138 + 90168 x139 + 107357 x140
       + 106421 x141 + 92676 x142 + 104200 x143 + 99239 x144 + 103942 x145
       + 92981 x146 + 100999 x147 + 93126 x148 + 95023 x149 + 92138 x150
       + 101657 x151 + 102011 x152 + 91378 x153 + 101402 x154 + 95229 x155
       + 105606 x156 + 107347 x157 + 101953 x158 + 98155 x159 + 98747 x160
       + 95725 x161 + 98018 x162 + 95300 x163 + 98518 x164 + 94801 x165
       + 92955 x166 + 107066 x167 + 105306 x168 + 94823 x169 + 103319 x170
       + 92221 x171 + 106503 x172 + 95102 x173 + 109660 x174 + 101883 x175
       + 90594 x176 + 96584 x177 + 102256 x178 + 106530 x179 + 104128 x180
       + 94372 x181 + 106173 x182 + 90847 x183 + 91681 x184 + 96414 x185
       + 109934 x186 + 90276 x187 + 107983 x188 + 105062 x189 + 96450 x190
       + 92489 x191 + 109911 x192 + 99095 x193 + 108956 x194 + 101147 x195
       + 97103 x196 + 98252 x197 + 95484 x198 + 95933 x199 + 95687 x200
       + 91801 x201 + 99549 x202 + 101829 x203 + 99703 x204 + 101615 x205
       + 109985 x206 + 91874 x207 + 106792 x208 + 92385 x209 + 95380 x210
       + 99239 x211 + 95996 x212 + 96937 x213 + 108469 x214 + 90112 x215
       + 108144 x216 + 105578 x217 + 96280 x218 + 100162 x219 + 102647 x220
       + 94959 x221 + 92989 x222 + 104221 x223 + 98411 x224 + 104191 x225
       + 104136 x226 + 91364 x227 + 101143 x228 + 103732 x229 + 93260 x230
       + 95710 x231 + 94518 x232 + 106058 x233 + 94956 x234 + 107022 x235
       + 108444 x236 + 96197 x237 + 102008 x238 + 94597 x239 + 94106 x240
       + 92525 x241 + 107687 x242 + 95365 x243 + 98367 x244 + 101031 x245
       + 98469 x246 + 101479 x247 + 101980 x248 + 100356 x249 + 99052 x250
       + 107148 x251 + 96268 x252 + 103983 x253 + 101739 x254 + 96576 x255
       + 100218 x256 + 90924 x257 + 106117 x258 + 90837 x259 + 90887 x260
       + 103298 x261 + 99053 x262 + 102100 x263 + 108180 x264 + 90854 x265
       + 101170 x266 + 108093 x267 + 93968 x268 + 106038 x269 + 92726 x270
       + 105103 x271 + 106719 x272 + 95223 x273 + 97190 x274 + 107638 x275
       + 98425 x276 + 94430 x277 + 91740 x278 + 103402 x279 + 101912 x280
       + 101137 x281 + 90506 x282 + 103322 x283 + 93494 x284 + 97726 x285
       + 108573 x286 + 108111 x287 + 108455 x288 + 106649 x289 + 102606 x290
       + 105214 x291 + 94992 x292 + 102577 x293 + 97404 x294 + 92986 x295
       + 96018 x296 + 92604 x297 + 106783 x298 + 102533 x299 + 348466 x300
       + 193053 x301 + 201784 x302 + 215691 x303 + 205834 x304 + 204920 x305
       + 199988 x306 + 216691 x307 + 194886 x308 + 210410 x309 + 186589 x310
       + 215570 x311 + 217616 x312 + 203906 x313 + 213853 x314 + 211279 x315
       + 210248 x316 + 182550 x317 + 186231 x318 + 215785 x319 + 217102 x320
       + 218790 x321 + 192246 x322 + 188000 x323 + 188627 x324 + 180505 x325
       + 214336 x326 + 184801 x327 + 219518 x328 + 212129 x329 + 180219 x330
       + 201813 x331 + 195809 x332 + 212113 x333 + 185934 x334 + 190394 x335
       + 203296 x336 + 217712 x337 + 191048 x338 + 204816 x339 + 216872 x340
       + 197537 x341 + 200632 x342 + 194911 x343 + 181333 x344 + 215418 x345
       + 186478 x346 + 214510 x347 + 208951 x348 + 186096 x349 + 201594 x350
       + 204765 x351 + 217562 x352 + 213882 x353 + 187392 x354 + 194022 x355
       + 195176 x356 + 189870 x357 + 182081 x358 + 212141 x359 + 112685 x360
Subject To
 c1:   - x8 + x17 - x27 + x31 + x39 - x44 + x45 - x50 - x52 - x54  = 0
 c2:   - x68 + x77 - x87 + x91 + x99 - x104 + x105 - x110 - x112 - x114  = 0
 c3:   - x128 + x137 - x147 + x151 + x159 - x164 + x165 - x170 - x172 - x174
        = 0
 c4:   - x188 + x197 - x207 + x211 + x219 - x224 + x225 - x230 - x232 - x234
        = 0
 c5:   - x248 + x257 - x267 + x271 + x279 - x284 + x285 - x290 - x292 - x294
        = 0
 c6:   x19 + x27 + x34 + x36 - x39 - x41 + x51 - x55 - x56 - x57 + x58 + x59
        = 0
 c7:   x79 + x87 + x94 + x96 - x99 - x101 + x111 - x115 - x116 - x117 + x118
       + x119  = -1
 c8:   x139 + x147 + x154 + x156 - x159 - x161 + x171 - x175 - x176 - x177
       + x178 + x179  = 0
 c9:   x199 + x207 + x214 + x216 - x219 - x221 + x231 - x235 - x236 - x237
       + x238 + x239  = 0
 c10:  x259 + x267 + x274 + x276 - x279 - x281 + x291 - x295 - x296 - x297
       + x298 + x299  = 0
 c11:  x4 - x9 + x14 - x15 + x18 - x21 + x35 - x38 + x43 + x44 - x47 - x59
       + x60  = 0
 c12:  x64 - x69 + x74 - x75 + x78 - x81 + x95 - x98 + x103 + x104 - x107
       - x119 + x120  = 0
 c13:  x124 - x129 + x134 - x135 + x138 - x141 + x155 - x158 + x163 + x164
       - x167 - x179 + x180  = 1
 c14:  x184 - x189 + x194 - x195 + x198 - x201 + x215 - x218 + x223 + x224
       - x227 - x239 + x240  = 1
 c15:  x244 - x249 + x254 - x255 + x258 - x261 + x275 - x278 + x283 + x284
       - x287 - x299 + x300  = 0
 c16:  - x2 - x3 - x5 + x10 - x11 + x12 - x14 + x21 - x32 - x46 + x53  = 0
 c17:  - x62 - x63 - x65 + x70 - x71 + x72 - x74 + x81 - x92 - x106 + x113  = 0
 c18:  - x122 - x123 - x125 + x130 - x131 + x132 - x134 + x141 - x152 - x166
       + x173  = -1
 c19:  - x182 - x183 - x185 + x190 - x191 + x192 - x194 + x201 - x212 - x226
       + x233  = 0
 c20:  - x242 - x243 - x245 + x250 - x251 + x252 - x254 + x261 - x272 - x286
       + x293  = 0
 c21:  x1 + x6 + x11 + x13 + x16 - x23 - x24 - x36 - x37 + x41 + x50  = 0
 c22:  x61 + x66 + x71 + x73 + x76 - x83 - x84 - x96 - x97 + x101 + x110  = 1
 c23:  x121 + x126 + x131 + x133 + x136 - x143 - x144 - x156 - x157 + x161
       + x170  = 0
 c24:  x181 + x186 + x191 + x193 + x196 - x203 - x204 - x216 - x217 + x221
       + x230  = 0
 c25:  x241 + x246 + x251 + x253 + x256 - x263 - x264 - x276 - x277 + x281
       + x290  = 0
 c26:  - x4 - x13 + x15 - x17 - x19 - x20 - x29 - x30 + x32 + x37 + x49 + x52
       + x56  = 1
 c27:  - x64 - x73 + x75 - x77 - x79 - x80 - x89 - x90 + x92 + x97 + x109
       + x112 + x116  = 0
 c28:  - x124 - x133 + x135 - x137 - x139 - x140 - x149 - x150 + x152 + x157
       + x169 + x172 + x176  = 0
 c29:  - x184 - x193 + x195 - x197 - x199 - x200 - x209 - x210 + x212 + x217
       + x229 + x232 + x236  = 0
 c30:  - x244 - x253 + x255 - x257 - x259 - x260 - x269 - x270 + x272 + x277
       + x289 + x292 + x296  = 0
 c31:  x3 - x6 + x9 - x12 + x22 + x25 + x29 + x42 - x48 - x51 - x60  = -1
 c32:  x63 - x66 + x69 - x72 + x82 + x85 + x89 + x102 - x108 - x111 - x120  = 0
 c33:  x123 - x126 + x129 - x132 + x142 + x145 + x149 + x162 - x168 - x171
       - x180  = 0
 c34:  x183 - x186 + x189 - x192 + x202 + x205 + x209 + x222 - x228 - x231
       - x240  = 0
 c35:  x243 - x246 + x249 - x252 + x262 + x265 + x269 + x282 - x288 - x291
       - x300  = -1
 c36:  x5 + x7 + x8 - x16 + x20 - x25 + x26 - x28 - x31 - x33 - x35 + x48 - x58
        = 0
 c37:  x65 + x67 + x68 - x76 + x80 - x85 + x86 - x88 - x91 - x93 - x95 + x108
       - x118  = 0
 c38:  x125 + x127 + x128 - x136 + x140 - x145 + x146 - x148 - x151 - x153
       - x155 + x168 - x178  = 0
 c39:  x185 + x187 + x188 - x196 + x200 - x205 + x206 - x208 - x211 - x213
       - x215 + x228 - x238  = -1
 c40:  x245 + x247 + x248 - x256 + x260 - x265 + x266 - x268 - x271 - x273
       - x275 + x288 - x298  = 0
 c41:  - x1 + x2 - x7 - x10 - x22 + x23 + x30 + x33 - x34 + x38 - x40 - x43
       + x57  = 0
 c42:  - x61 + x62 - x67 - x70 - x82 + x83 + x90 + x93 - x94 + x98 - x100
       - x103 + x117  = 0
 c43:  - x121 + x122 - x127 - x130 - x142 + x143 + x150 + x153 - x154 + x158
       - x160 - x163 + x177  = 0
 c44:  - x181 + x182 - x187 - x190 - x202 + x203 + x210 + x213 - x214 + x218
       - x220 - x223 + x237  = 0
 c45:  - x241 + x242 - x247 - x250 - x262 + x263 + x270 + x273 - x274 + x278
       - x280 - x283 + x297  = 0
 c46:  - x18 + x24 - x26 + x28 + x40 - x42 - x45 + x46 + x47 - x49 - x53 + x54
       + x55  = 0
 c47:  - x78 + x84 - x86 + x88 + x100 - x102 - x105 + x106 + x107 - x109 - x113
       + x114 + x115  = 0
 c48:  - x138 + x144 - x146 + x148 + x160 - x162 - x165 + x166 + x167 - x169
       - x173 + x174 + x175  = 0
 c49:  - x198 + x204 - x206 + x208 + x220 - x222 - x225 + x226 + x227 - x229
       - x233 + x234 + x235  = 0
 c50:  - x258 + x264 - x266 + x268 + x280 - x282 - x285 + x286 + x287 - x289
       - x293 + x294 + x295  = 1
 c51:  4 x1 + 4 x61 + 4 x121 + 4 x181 + 4 x241 - 2 x301 <= 0
 c52:  4 x2 + 4 x62 + 4 x122 + 4 x182 + 4 x242 - 2 x302 <= 0
 c53:  4 x3 + 4 x63 + 4 x123 + 4 x183 + 4 x243 - 2 x303 <= 0
 c54:  4 x4 + 4 x64 + 4 x124 + 4 x184 + 4 x244 - 2 x304 <= 0
 c55:  4 x5 + 4 x65 + 4 x125 + 4 x185 + 4 x245 - 2 x305 <= 0
 c56:  4 x6 + 4 x66 + 4 x126 + 4 x186 + 4 x246 - 2 x306 <= 0
 c57:  4 x7 + 4 x67 + 4 x127 + 4 x187 + 4 x247 - 2 x307 <= 0
 c58:  4 x8 + 4 x68 + 4 x128 + 4 x188 + 4 x248 - 2 x308 <= 0
 c59:  4 x9 + 4 x69 + 4 x129 + 4 x189 + 4 x249 - 2 x309 <= 0
 c60:  4 x10 + 4 x70 + 4 x130 + 4 x190 + 4 x250 - 2 x310 <= 0
 c61:  4 x11 + 4 x71 + 4 x131 + 4 x191 + 4 x251 - 2 x311 <= 0
 c62:  4 x12 + 4 x72 + 4 x132 + 4 x192 + 4 x252 - 2 x312 <= 0
 c63:  4 x13 + 4 x73 + 4 x133 + 4 x193 + 4 x253 - 2 x313 <= 0
 c64:  4 x14 + 4 x74 + 4 x134 + 4 x194 + 4 x254 - 2 x314 <= 0
 c65:  4 x15 + 4 x75 + 4 x135 + 4 x195 + 4 x255 - 2 x315 <= 0
 c66:  4 x16 + 4 x76 + 4 x136 + 4 x196 + 4 x256 - 2 x316 <= 0
 c67:  4 x17 + 4 x77 + 4 x137 + 4 x197 + 4 x257 - 2 x317 <= 0
 c68:  4 x18 + 4 x78 + 4 x138 + 4 x198 + 4 x258 - 2 x318 <= 0
 c69:  4 x19 + 4 x79 + 4 x139 + 4 x199 + 4 x259 - 2 x319 <= 0
 c70:  4 x20 + 4 x80 + 4 x140 + 4 x200 + 4 x260 - 2 x320 <= 0
 c71:  4 x21 + 4 x81 + 4 x141 + 4 x201 + 4 x261 - 2 x321 <= 0
 c72:  4 x22 + 4 x82 + 4 x142 + 4 x202 + 4 x262 - 2 x322 <= 0
 c73:  4 x23 + 4 x83 + 4 x143 + 4 x203 + 4 x263 - 2 x323 <= 0
 c74:  4 x24 + 4 x84 + 4 x144 + 4 x204 + 4 x264 - 2 x324 <= 0
 c75:  4 x25 + 4 x85 + 4 x145 + 4 x205 + 4 x265 - 2 x325 <= 0
 c76:  4 x26 + 4 x86 + 4 x146 + 4 x206 + 4 x266 - 2 x326 <= 0
 c77:  4 x27 + 4 x87 + 4 x147 + 4 x207 + 4 x267 - 2 x327 <= 0
 c78:  4 x28 + 4 x88 + 4 x148 + 4 x208 + 4 x268 - 2 x328 <= 0
 c79:  4 x29 + 4 x89 + 4 x149 + 4 x209 + 4 x269 - 2 x329 <= 0
 c80:  4 x30 + 4 x90 + 4 x150 + 4 x210 + 4 x270 - 2 x330 <= 0
 c81:  4 x31 + 4 x91 + 4 x151 + 4 x211 + 4 x271 - 2 x331 <= 0
 c82:  4 x32 + 4 x92 + 4 x152 + 4 x212 + 4 x272 - 2 x332 <= 0
 c83:  4 x33 + 4 x93 + 4 x153 + 4 x213 + 4 x273 - 2 x333 <= 0
 c84:  4 x34 + 4 x94 + 4 x154 + 4 x214 + 4 x274 - 2 x334 <= 0
 c85:  4 x35 + 4 x95 + 4 x155 + 4 x215 + 4 x275 - 2 x335 <= 0
 c86:  4 x36 + 4 x96 + 4 x156 + 4 x216 + 4 x276 - 2 x336 <= 0
 c87:  4 x37 + 4 x97 + 4 x157 + 4 x217 + 4 x277 - 2 x337 <= 0
 c88:  4 x38 + 4 x98 + 4 x158 + 4 x218 + 4 x278 - 2 x338 <= 0
 c89:  4 x39 + 4 x99 + 4 x159 + 4 x219 + 4 x279 - 2 x339 <= 0
 c90:  4 x40 + 4 x100 + 4 x160 + 4 x220 + 4 x280 - 2 x340 <= 0
 c91:  4 x41 + 4 x101 + 4 x161 + 4 x221 + 4 x281 - 2 x341 <= 0
 c92:  4 x42 + 4 x102 + 4 x162 + 4 x222 + 4 x282 - 2 x342 <= 0
 c93:  4 x43 + 4 x103 + 4 x163 + 4 x223 + 4 x283 - 2 x343 <= 0
 c94:  4 x44 + 4 x104 + 4 x164 + 4 x224 + 4 x284 - 2 x344 <= 0
 c95:  4 x45 + 4 x105 + 4 x165 + 4 x225 + 4 x285 - 2 x345 <= 0
 c96:  4 x46 + 4 x106 + 4 x166 + 4 x226 + 4 x286 - 2 x346 <= 0
 c97:  4 x47 + 4 x107 + 4 x167 + 4 x227 + 4 x287 - 2 x347 <= 0
 c98:  4 x48 + 4 x108 + 4 x168 + 4 x228 + 4 x288 - 2 x348 <= 0
 c99:  4 x49 + 4 x109 + 4 x169 + 4 x229 + 4 x289 - 2 x349 <= 0
 c100: 4 x50 + 4 x110 + 4 x170 + 4 x230 + 4 x290 - 2 x350 <= 0
 c101: 4 x51 + 4 x111 + 4 x171 + 4 x231 + 4 x291 - 2 x351 <= 0
 c102: 4 x52 + 4 x112 + 4 x172 + 4 x232 + 4 x292 - 2 x352 <= 0
 c103: 4 x53 + 4 x113 + 4 x173 + 4 x233 + 4 x293 - 2 x353 <= 0
 c104: 4 x54 + 4 x114 + 4 x174 + 4 x234 + 4 x294 - 2 x354 <= 0
 c105: 4 x55 + 4 x115 + 4 x175 + 4 x235 + 4 x295 - 2 x355 <= 0
 c106: 4 x56 + 4 x116 + 4 x176 + 4 x236 + 4 x296 - 2 x356 <= 0
 c107: 4 x57 + 4 x117 + 4 x177 + 4 x237 + 4 x297 - 2 x357 <= 0
 c108: 4 x58 + 4 x118 + 4 x178 + 4 x238 + 4 x298 - 2 x358 <= 0
 c109: 4 x59 + 4 x119 + 4 x179 + 4 x239 + 4 x299 - 2 x359 <= 0
 c110: 4 x60 + 4 x120 + 4 x180 + 4 x240 + 4 x300 - 2 x360 <= 0
Bounds
 0 <= x1 <= 1
 0 <= x2 <= 1
 0 <= x3 <= 1
 0 <= x4 <= 1
 0 <= x5 <= 1
 0 <= x6 <= 1
 0 <= x7 <= 1
 0 <= x8 <= 1
 0 <= x9 <= 1
 0 <= x10 <= 1
 0 <= x11 <= 1
 0 <= x12 <= 1
 0 <= x13 <= 1
 0 <= x14 <= 1
 0 <= x15 <= 1
 0 <= x16 <= 1
 0 <= x17 <= 1
 0 <= x18 <= 1
 0 <= x19 <= 1
 0 <= x20 <= 1
 0 <= x21 <= 1
 0 <= x22 <= 1
 0 <= x23 <= 1
 0 <= x24 <= 1
 0 <= x25 <= 1
 0 <= x26 <= 1
 0 <= x27 <= 1
 0 <= x28 <= 1
 0 <= x29 <= 1
 0 <= x30 <= 1
 0 <= x31 <= 1
 0 <= x32 <= 1
 0 <= x33 <= 1
 0 <= x34 <= 1
 0 <= x35 <= 1
 0 <= x36 <= 1
 0 <= x37 <= 1
 0 <= x38 <= 1
 0 <= x39 <= 1
 0 <= x40 <= 1
 0 <= x41 <= 1
 0 <= x42 <= 1
 0 <= x43 <= 1
 0 <= x44 <= 1
 0 <= x45 <= 1
 0 <= x46 <= 1
 0 <= x47 <= 1
 0 <= x48 <= 1
 0 <= x49 <= 1
 0 <= x50 <= 1
 0 <= x51 <= 1
 0 <= x52 <= 1
 0 <= x53 <= 1
 0 <= x54 <= 1
 0 <= x55 <= 1
 0 <= x56 <= 1
 0 <= x57 <= 1
 0 <= x58 <= 1
 0 <= x59 <= 1
 0 <= x60 <= 1
 0 <= x61 <= 1
 0 <= x62 <= 1
 0 <= x63 <= 1
 0 <= x64 <= 1
 0 <= x65 <= 1
 0 <= x66 <= 1
 0 <= x67 <= 1
 0 <= x68 <= 1
 0 <= x69 <= 1
 0 <= x70 <= 1
 0 <= x71 <= 1
 0 <= x72 <= 1
 0 <= x73 <= 1
 0 <= x74 <= 1
 0 <= x75 <= 1
 0 <= x76 <= 1
 0 <= x77 <= 1
 0 <= x78 <= 1
 0 <= x79 <= 1
 0 <= x80 <= 1
 0 <= x81 <= 1
 0 <= x82 <= 1
 0 <= x83 <= 1
 0 <= x84 <= 1
 0 <= x85 <= 1
 0 <= x86 <= 1
 0 <= x87 <= 1
 0 <= x88 <= 1
 0 <= x89 <= 1
 0 <= x90 <= 1
 0 <= x91 <= 1
 0 <= x92 <= 1
 0 <= x93 <= 1
 0 <= x94 <= 1
 0 <= x95 <= 1
 0 <= x96 <= 1
 0 <= x97 <= 1
 0 <= x98 <= 1
 0 <= x99 <= 1
 0 <= x100 <= 1
 0 <= x101 <= 1
 0 <= x102 <= 1
 0 <= x103 <= 1
 0 <= x104 <= 1
 0 <= x105 <= 1
 0 <= x106 <= 1
 0 <= x107 <= 1
 0 <= x108 <= 1
 0 <= x109 <= 1
 0 <= x110 <= 1
 0 <= x111 <= 1
 0 <= x112 <= 1
 0 <= x113 <= 1
 0 <= x114 <= 1
 0 <= x115 <= 1
 0 <= x116 <= 1
 0 <= x117 <= 1
 0 <= x118 <= 1
 0 <= x119 <= 1
 0 <= x120 <= 1
 0 <= x121 <= 1
 0 <= x122 <= 1
 0 <= x123 <= 1
 0 <= x124 <= 1
 0 <= x125 <= 1
 0 <= x126 <= 1
 0 <= x127 <= 1
 0 <= x128 <= 1
 0 <= x129 <= 1
 0 <= x130 <= 1
 0 <= x131 <= 1
 0 <= x132 <= 1
 0 <= x133 <= 1
 0 <= x134 <= 1
 0 <= x135 <= 1
 0 <= x136 <= 1
 0 <= x137 <= 1
 0 <= x138 <= 1
 0 <= x139 <= 1
 0 <= x140 <= 1
 0 <= x141 <= 1
 0 <= x142 <= 1
 0 <= x143 <= 1
 0 <= x144 <= 1
 0 <= x145 <= 1
 0 <= x146 <= 1
 0 <= x147 <= 1
 0 <= x148 <= 1
 0 <= x149 <= 1
 0 <= x150 <= 1
 0 <= x151 <= 1
 0 <= x152 <= 1
 0 <= x153 <= 1
 0 <= x154 <= 1
 0 <= x155 <= 1
 0 <= x156 <= 1
 0 <= x157 <= 1
 0 <= x158 <= 1
 0 <= x159 <= 1
 0 <= x160 <= 1
 0 <= x161 <= 1
 0 <= x162 <= 1
 0 <= x163 <= 1
 0 <= x164 <= 1
 0 <= x165 <= 1
 0 <= x166 <= 1
 0 <= x167 <= 1
 0 <= x168 <= 1
 0 <= x169 <= 1
 0 <= x170 <= 1
 0 <= x171 <= 1
 0 <= x172 <= 1
 0 <= x173 <= 1
 0 <= x174 <= 1
 0 <= x175 <= 1
 0 <= x176 <= 1
 0 <= x177 <= 1
 0 <= x178 <= 1
 0 <= x179 <= 1
 0 <= x180 <= 1
 0 <= x181 <= 1
 0 <= x182 <= 1
 0 <= x183 <= 1
 0 <= x184 <= 1
 0 <= x185 <= 1
 0 <= x186 <= 1
 0 <= x187 <= 1
 0 <= x188 <= 1
 0 <= x189 <= 1
 0 <= x190 <= 1
 0 <= x191 <= 1
 0 <= x192 <= 1
 0 <= x193 <= 1
 0 <= x194 <= 1
 0 <= x195 <= 1
 0 <= x196 <= 1
 0 <= x197 <= 1
 0 <= x198 <= 1
 0 <= x199 <= 1
 0 <= x200 <= 1
 0 <= x201 <= 1
 0 <= x202 <= 1
 0 <= x203 <= 1
 0 <= x204 <= 1
 0 <= x205 <= 1
 0 <= x206 <= 1
 0 <= x207 <= 1
 0 <= x208 <= 1
 0 <= x209 <= 1
 0 <= x210 <= 1
 0 <= x211 <= 1
 0 <= x212 <= 1
 0 <= x213 <= 1
 0 <= x214 <= 1
 0 <= x215 <= 1
 0 <= x216 <= 1
 0 <= x217 <= 1
 0 <= x218 <= 1
 0 <= x219 <= 1
 0 <= x220 <= 1
 0 <= x221 <= 1
 0 <= x222 <= 1
 0 <= x223 <= 1
 0 <= x224 <= 1
 0 <= x225 <= 1
 0 <= x226 <= 1
 0 <= x227 <= 1
 0 <= x228 <= 1
 0 <= x229 <= 1
 0 <= x230 <= 1
 0 <= x231 <= 1
 0 <= x232 <= 1
 0 <= x233 <= 1
 0 <= x234 <= 1
 0 <= x235 <= 1
 0 <= x236 <= 1
 0 <= x237 <= 1
 0 <= x238 <= 1
 0 <= x239 <= 1
 0 <= x240 <= 1
 0 <= x241 <= 1
 0 <= x242 <= 1
 0 <= x243 <= 1
 0 <= x244 <= 1
 0 <= x245 <= 1
 0 <= x246 <= 1
 0 <= x247 <= 1
 0 <= x248 <= 1
 0 <= x249 <= 1
 0 <= x250 <= 1
 0 <= x251 <= 1
 0 <= x252 <= 1
 0 <= x253 <= 1
 0 <= x254 <= 1
 0 <= x255 <= 1
 0 <= x256 <= 1
 0 <= x257 <= 1
 0 <= x258 <= 1
 0 <= x259 <= 1
 0 <= x260 <= 1
 0 <= x261 <= 1
 0 <= x262 <= 1
 0 <= x263 <= 1
 0 <= x264 <= 1
 0 <= x265 <= 1
 0 <= x266 <= 1
 0 <= x267 <= 1
 0 <= x268 <= 1
 0 <= x269 <= 1
 0 <= x270 <= 1
 0 <= x271 <= 1
 0 <= x272 <= 1
 0 <= x273 <= 1
 0 <= x274 <= 1
 0 <= x275 <= 1
 0 <= x276 <= 1
 0 <= x277 <= 1
 0 <= x278 <= 1
 0 <= x279 <= 1
 0 <= x280 <= 1
 0 <= x281 <= 1
 0 <= x282 <= 1
 0 <= x283 <= 1
 0 <= x284 <= 1
 0 <= x285 <= 1
 0 <= x286 <= 1
 0 <= x287 <= 1
 0 <= x288 <= 1
 0 <= x289 <= 1
 0 <= x290 <= 1
 0 <= x291 <= 1
 0 <= x292 <= 1
 0 <= x293 <= 1
 0 <= x294 <= 1
 0 <= x295 <= 1
 0 <= x296 <= 1
 0 <= x297 <= 1
 0 <= x298 <= 1
 0 <= x299 <= 1
 0 <= x300 <= 1
 0 <= x301 <= 1
 0 <= x302 <= 1
 0 <= x303 <= 1
 0 <= x304 <= 1
 0 <= x305 <= 1
 0 <= x306 <= 1
 0 <= x307 <= 1
 0 <= x308 <= 1
 0 <= x309 <= 1
 0 <= x310 <= 1
 0 <= x311 <= 1
 0 <= x312 <= 1
 0 <= x313 <= 1
 0 <= x314 <= 1
 0 <= x315 <= 1
 0 <= x316 <= 1
 0 <= x317 <= 1
 0 <= x318 <= 1
 0 <= x319 <= 1
 0 <= x320 <= 1
 0 <= x321 <= 1
 0 <= x322 <= 1
 0 <= x323 <= 1
 0 <= x324 <= 1
 0 <= x325 <= 1
 0 <= x326 <= 1
 0 <= x327 <= 1
 0 <= x328 <= 1
 0 <= x329 <= 1
 0 <= x330 <= 1
 0 <= x331 <= 1
 0 <= x332 <= 1
 0 <= x333 <= 1
 0 <= x334 <= 1
 0 <= x335 <= 1
 0 <= x336 <= 1
 0 <= x337 <= 1
 0 <= x338 <= 1
 0 <= x339 <= 1
 0 <= x340 <= 1
 0 <= x341 <= 1
 0 <= x342 <= 1
 0 <= x343 <= 1
 0 <= x344 <= 1
 0 <= x345 <= 1
 0 <= x346 <= 1
 0 <= x347 <= 1
 0 <= x348 <= 1
 0 <= x349 <= 1
 0 <= x350 <= 1
 0 <= x351 <= 1
 0 <= x352 <= 1
 0 <= x353 <= 1
 0 <= x354 <= 1
 0 <= x355 <= 1
 0 <= x356 <= 1
 0 <= x357 <= 1
 0 <= x358 <= 1
 0 <= x359 <= 1
 0 <= x360 <= 1
Binaries
 x301  x302  x303  x304  x305  x306  x307  x308  x309  x310  x311  x312  x313 
 x314  x315  x316  x317  x318  x319  x320  x321  x322  x323  x324  x325  x326 
 x327  x328  x329  x330  x331  x332  x333  x334  x335  x336  x337  x338  x339 
 x340  x341  x342  x343  x344  x345  x346  x347  x348  x349  x350  x351  x352 
 x353  x354  x355  x356  x357  x358  x359  x360 
End
